(set-info :smt-lib-version 2.6)
(set-logic QF_NIA)
(set-info :source |
Generated by: Cristina Borralleras, Daniel Larraz, Albert Oliveras, Enric Rodriguez-Carbonell, Albert Rubio
Generated on: 2017-04-27
Generator: VeryMax
Application: Termination proving
Target solver: barcelogic
|)
(set-info :license "https://creativecommons.org/licenses/by/4.0/")
(set-info :category "industrial")
(set-info :status unsat)
(declare-fun Nl5arg11 () Int)
(declare-fun Nl5arg21 () Int)
(declare-fun Nl5arg31 () Int)
(declare-fun Nl5arg41 () Int)
(declare-fun lam0n0 () Int)
(declare-fun lam0n1 () Int)
(declare-fun lam0n2 () Int)
(declare-fun lam0n3 () Int)
(declare-fun lam0n4 () Int)
(declare-fun lam0n5 () Int)
(declare-fun lam0n6 () Int)
(declare-fun lam0n7 () Int)
(declare-fun lam0n8 () Int)
(declare-fun lam0n10 () Int)
(declare-fun lam0n11 () Int)
(declare-fun UndefCntr0_CT () Int)
(declare-fun Nl5CT1 () Int)
(declare-fun UndefCntr0_arg1 () Int)
(declare-fun UndefCntr0_arg2 () Int)
(declare-fun UndefCntr0_arg3 () Int)
(declare-fun UndefCntr0_arg4 () Int)
(declare-fun lam0n9 () Int)
(declare-fun UndefCntr0_undef49 () Int)
(declare-fun UndefCntr0_undef50 () Int)
(declare-fun UndefCntr0_undef51 () Int)
(declare-fun UndefCntr0_undef52 () Int)
(declare-fun lam1n0 () Int)
(declare-fun lam1n1 () Int)
(declare-fun lam1n2 () Int)
(declare-fun lam1n3 () Int)
(declare-fun lam1n4 () Int)
(declare-fun lam1n5 () Int)
(declare-fun lam1n6 () Int)
(declare-fun lam1n7 () Int)
(declare-fun lam1n8 () Int)
(declare-fun lam1n10 () Int)
(declare-fun lam1n11 () Int)
(declare-fun lam1n9 () Int)
(declare-fun lam2n0 () Int)
(declare-fun lam2n1 () Int)
(declare-fun lam2n2 () Int)
(declare-fun lam2n3 () Int)
(declare-fun lam2n4 () Int)
(declare-fun lam2n6 () Int)
(declare-fun lam2n7 () Int)
(declare-fun UndefCntr1_CT () Int)
(declare-fun UndefCntr1_arg1 () Int)
(declare-fun UndefCntr1_arg2 () Int)
(declare-fun UndefCntr1_arg3 () Int)
(declare-fun UndefCntr1_arg4 () Int)
(declare-fun lam2n5 () Int)
(declare-fun UndefCntr1_undef53 () Int)
(declare-fun UndefCntr1_undef54 () Int)
(declare-fun UndefCntr1_undef55 () Int)
(declare-fun UndefCntr1_undef56 () Int)
(declare-fun lam3n0 () Int)
(declare-fun lam3n1 () Int)
(declare-fun lam3n2 () Int)
(declare-fun lam3n3 () Int)
(declare-fun lam3n4 () Int)
(declare-fun lam3n6 () Int)
(declare-fun lam3n7 () Int)
(declare-fun lam3n5 () Int)
(declare-fun lam4n0 () Int)
(declare-fun lam4n1 () Int)
(declare-fun lam4n2 () Int)
(declare-fun lam4n3 () Int)
(declare-fun lam4n4 () Int)
(declare-fun lam4n5 () Int)
(declare-fun lam4n6 () Int)
(declare-fun lam4n7 () Int)
(declare-fun lam4n8 () Int)
(declare-fun lam4n9 () Int)
(declare-fun lam5n0 () Int)
(declare-fun lam5n1 () Int)
(declare-fun lam5n2 () Int)
(declare-fun lam5n3 () Int)
(declare-fun lam5n4 () Int)
(declare-fun lam5n5 () Int)
(declare-fun undef1 () Int)
(declare-fun undef69 () Int)
(declare-fun undef2 () Int)
(declare-fun undef44 () Int)
(declare-fun undef45 () Int)
(declare-fun undef48 () Int)
(declare-fun undef3 () Int)
(declare-fun undef46 () Int)
(declare-fun undef47 () Int)
(declare-fun undef40 () Int)
(declare-fun undef41 () Int)
(declare-fun undef70 () Int)
(declare-fun undef42 () Int)
(declare-fun undef43 () Int)
(declare-fun FV_arg1_2 () Int)
(declare-fun FV_arg2_2 () Int)
(declare-fun FV_arg3_2 () Int)
(declare-fun FV_arg4_2 () Int)
(declare-fun lam6n0 () Int)
(declare-fun lam6n1 () Int)
(declare-fun lam6n2 () Int)
(declare-fun lam6n3 () Int)
(declare-fun lam6n4 () Int)
(declare-fun lam7n0 () Int)
(declare-fun lam7n1 () Int)
(declare-fun lam7n2 () Int)
(declare-fun lam7n3 () Int)
(declare-fun lam7n4 () Int)
(declare-fun UndefDef0undef50_CT () Int)
(declare-fun UndefDef0undef50_arg1 () Int)
(declare-fun UndefDef0undef50_arg2 () Int)
(declare-fun UndefDef0undef50_arg3 () Int)
(declare-fun UndefDef0undef50_arg4 () Int)
(declare-fun lam8n0 () Int)
(declare-fun lam8n1 () Int)
(declare-fun lam8n2 () Int)
(declare-fun lam8n3 () Int)
(declare-fun lam8n4 () Int)
(declare-fun UndefDef0undef49_CT () Int)
(declare-fun UndefDef0undef49_arg1 () Int)
(declare-fun UndefDef0undef49_arg2 () Int)
(declare-fun UndefDef0undef49_arg3 () Int)
(declare-fun UndefDef0undef49_arg4 () Int)
(declare-fun lam9n0 () Int)
(declare-fun lam9n1 () Int)
(declare-fun lam9n2 () Int)
(declare-fun lam9n3 () Int)
(declare-fun lam9n4 () Int)
(declare-fun lam10n0 () Int)
(declare-fun lam10n1 () Int)
(declare-fun lam10n2 () Int)
(declare-fun lam10n3 () Int)
(declare-fun lam10n4 () Int)
(declare-fun lam11n0 () Int)
(declare-fun lam11n1 () Int)
(declare-fun lam11n2 () Int)
(declare-fun lam11n3 () Int)
(declare-fun lam11n4 () Int)
(declare-fun lam12n0 () Int)
(declare-fun lam12n1 () Int)
(declare-fun lam12n2 () Int)
(declare-fun lam12n3 () Int)
(declare-fun lam12n4 () Int)
(declare-fun lam13n0 () Int)
(declare-fun lam13n1 () Int)
(declare-fun lam13n2 () Int)
(declare-fun lam13n3 () Int)
(declare-fun lam13n4 () Int)
(declare-fun lam14n0 () Int)
(declare-fun lam14n1 () Int)
(declare-fun lam14n2 () Int)
(declare-fun lam14n3 () Int)
(declare-fun lam14n4 () Int)
(declare-fun FV_undef53_1 () Int)
(declare-fun FV_undef54_1 () Int)
(declare-fun FV_arg1_1 () Int)
(declare-fun FV_arg2_1 () Int)
(declare-fun FV_arg3_1 () Int)
(declare-fun FV_arg4_1 () Int)
(declare-fun FV_undef55_1 () Int)
(declare-fun FV_undef56_1 () Int)
(declare-fun lam15n0 () Int)
(declare-fun lam15n1 () Int)
(declare-fun lam15n2 () Int)
(declare-fun FV_arg1_3 () Int)
(declare-fun FV_arg2_3 () Int)
(declare-fun FV_arg3_3 () Int)
(declare-fun FV_arg4_3 () Int)
(declare-fun FV_undef50_3 () Int)
(declare-fun FV_undef49_3 () Int)
(declare-fun FV_undef54_3 () Int)
(declare-fun FV_undef53_3 () Int)
(assert ( and ( <= ( - 1 ) Nl5arg11 ) ( <= Nl5arg11 1 ) ( <= ( - 1 ) Nl5arg21 ) ( <= Nl5arg21 1 ) ( <= ( - 1 ) Nl5arg31 ) ( <= Nl5arg31 1 ) ( <= ( - 1 ) Nl5arg41 ) ( <= Nl5arg41 1 ) ))
(assert ( or ( and ( >= lam0n0 0 ) ( >= lam0n1 0 ) ( >= lam0n2 0 ) ( >= lam0n3 0 ) ( >= lam0n4 0 ) ( >= lam0n5 0 ) ( >= lam0n6 0 ) ( >= lam0n7 0 ) ( >= lam0n8 0 ) ( >= lam0n10 0 ) ( >= lam0n11 0 ) ( > ( + ( * 2 lam0n2 ) ( * 2 lam0n3 ) ( * 2 lam0n4 ) ( * 2 lam0n5 ) ( * 2 lam0n6 ) ( * 3 lam0n7 ) ( * 3 lam0n8 ) ( * UndefCntr0_CT lam0n10 ) ( * Nl5CT1 lam0n11 ) ( - 1 ) ) 0 ) ( = ( + ( * 1 lam0n0 ) ( * ( - 1 ) lam0n2 ) ( * ( - 1 ) lam0n3 ) ( * ( - 1 ) lam0n4 ) ( * ( - 1 ) lam0n7 ) ( * UndefCntr0_arg1 lam0n10 ) ( * Nl5arg11 lam0n11 ) ) 0 ) ( = ( + ( * ( - 1 ) lam0n0 ) ( * ( - 1 ) lam0n2 ) ( * ( - 1 ) lam0n5 ) ( * ( - 1 ) lam0n6 ) ( * ( - 1 ) lam0n8 ) ( * UndefCntr0_arg2 lam0n10 ) ( * Nl5arg21 lam0n11 ) ) 0 ) ( = ( + ( * UndefCntr0_arg3 lam0n10 ) ( * Nl5arg31 lam0n11 ) ) 0 ) ( = ( + ( * UndefCntr0_arg4 lam0n10 ) ( * Nl5arg41 lam0n11 ) ) 0 ) ( = ( + ( * 1 lam0n3 ) ( * 1 lam0n5 ) ( * 1 lam0n9 ) ( * UndefCntr0_undef49 lam0n10 ) ) 0 ) ( = ( + ( * ( - 1 ) lam0n1 ) ( * 1 lam0n4 ) ( * 1 lam0n6 ) ( * UndefCntr0_undef50 lam0n10 ) ) 0 ) ( = ( * UndefCntr0_undef51 lam0n10 ) 0 ) ( = ( * UndefCntr0_undef52 lam0n10 ) 0 ) ) ( and ( >= lam1n0 0 ) ( >= lam1n1 0 ) ( >= lam1n2 0 ) ( >= lam1n3 0 ) ( >= lam1n4 0 ) ( >= lam1n5 0 ) ( >= lam1n6 0 ) ( >= lam1n7 0 ) ( >= lam1n8 0 ) ( >= lam1n10 0 ) ( >= lam1n11 0 ) ( > ( + ( * 2 lam1n2 ) ( * 2 lam1n3 ) ( * 2 lam1n4 ) ( * 2 lam1n5 ) ( * 2 lam1n6 ) ( * 3 lam1n7 ) ( * 3 lam1n8 ) ( * UndefCntr0_CT lam1n10 ) ( * Nl5CT1 lam1n11 ) ( - 1 ( + ( + ( + ( + Nl5CT1 ( * Nl5arg11 0 ) ) ( * Nl5arg21 0 ) ) ( * Nl5arg31 0 ) ) ( * Nl5arg41 0 ) ) ) ) 0 ) ( = ( + ( * 1 lam1n0 ) ( * ( - 1 ) lam1n2 ) ( * ( - 1 ) lam1n3 ) ( * ( - 1 ) lam1n4 ) ( * ( - 1 ) lam1n7 ) ( * UndefCntr0_arg1 lam1n10 ) ( * Nl5arg11 lam1n11 ) ) 0 ) ( = ( + ( * ( - 1 ) lam1n0 ) ( * ( - 1 ) lam1n2 ) ( * ( - 1 ) lam1n5 ) ( * ( - 1 ) lam1n6 ) ( * ( - 1 ) lam1n8 ) ( * UndefCntr0_arg2 lam1n10 ) ( * Nl5arg21 lam1n11 ) ) 0 ) ( = ( + ( * UndefCntr0_arg3 lam1n10 ) ( * Nl5arg31 lam1n11 ) ) 0 ) ( = ( + ( * UndefCntr0_arg4 lam1n10 ) ( * Nl5arg41 lam1n11 ) ) 0 ) ( = ( + ( * 1 lam1n3 ) ( * 1 lam1n5 ) ( * 1 lam1n9 ) ( * UndefCntr0_undef49 lam1n10 ) ( - ( + 0 ( * Nl5arg11 1 ) ) ) ) 0 ) ( = ( + ( * ( - 1 ) lam1n1 ) ( * 1 lam1n4 ) ( * 1 lam1n6 ) ( * UndefCntr0_undef50 lam1n10 ) ( - ( + 0 ( * Nl5arg21 1 ) ) ) ) 0 ) ( = ( + ( * UndefCntr0_undef51 lam1n10 ) ( - ( + 0 ( * Nl5arg31 1 ) ) ) ) 0 ) ( = ( + ( * UndefCntr0_undef52 lam1n10 ) ( - ( + 0 ( * Nl5arg41 1 ) ) ) ) 0 ) ) ))
(assert ( or ( and ( >= lam2n0 0 ) ( >= lam2n1 0 ) ( >= lam2n2 0 ) ( >= lam2n3 0 ) ( >= lam2n4 0 ) ( >= lam2n6 0 ) ( >= lam2n7 0 ) ( > ( + ( * 2 lam2n2 ) ( * 3 lam2n3 ) ( * 3 lam2n4 ) ( * UndefCntr1_CT lam2n6 ) ( * Nl5CT1 lam2n7 ) ( - 1 ) ) 0 ) ( = ( + ( * 1 lam2n0 ) ( * ( - 1 ) lam2n2 ) ( * ( - 1 ) lam2n3 ) ( * UndefCntr1_arg1 lam2n6 ) ( * Nl5arg11 lam2n7 ) ) 0 ) ( = ( + ( * ( - 1 ) lam2n0 ) ( * ( - 1 ) lam2n2 ) ( * ( - 1 ) lam2n4 ) ( * UndefCntr1_arg2 lam2n6 ) ( * Nl5arg21 lam2n7 ) ) 0 ) ( = ( + ( * UndefCntr1_arg3 lam2n6 ) ( * Nl5arg31 lam2n7 ) ) 0 ) ( = ( + ( * UndefCntr1_arg4 lam2n6 ) ( * Nl5arg41 lam2n7 ) ) 0 ) ( = ( + ( * 1 lam2n5 ) ( * UndefCntr1_undef53 lam2n6 ) ) 0 ) ( = ( + ( * ( - 1 ) lam2n1 ) ( * UndefCntr1_undef54 lam2n6 ) ) 0 ) ( = ( * UndefCntr1_undef55 lam2n6 ) 0 ) ( = ( * UndefCntr1_undef56 lam2n6 ) 0 ) ) ( and ( >= lam3n0 0 ) ( >= lam3n1 0 ) ( >= lam3n2 0 ) ( >= lam3n3 0 ) ( >= lam3n4 0 ) ( >= lam3n6 0 ) ( >= lam3n7 0 ) ( > ( + ( * 2 lam3n2 ) ( * 3 lam3n3 ) ( * 3 lam3n4 ) ( * UndefCntr1_CT lam3n6 ) ( * Nl5CT1 lam3n7 ) ( - 1 ( + ( + ( + ( + Nl5CT1 ( * Nl5arg11 0 ) ) ( * Nl5arg21 0 ) ) ( * Nl5arg31 0 ) ) ( * Nl5arg41 0 ) ) ) ) 0 ) ( = ( + ( * 1 lam3n0 ) ( * ( - 1 ) lam3n2 ) ( * ( - 1 ) lam3n3 ) ( * UndefCntr1_arg1 lam3n6 ) ( * Nl5arg11 lam3n7 ) ) 0 ) ( = ( + ( * ( - 1 ) lam3n0 ) ( * ( - 1 ) lam3n2 ) ( * ( - 1 ) lam3n4 ) ( * UndefCntr1_arg2 lam3n6 ) ( * Nl5arg21 lam3n7 ) ) 0 ) ( = ( + ( * UndefCntr1_arg3 lam3n6 ) ( * Nl5arg31 lam3n7 ) ) 0 ) ( = ( + ( * UndefCntr1_arg4 lam3n6 ) ( * Nl5arg41 lam3n7 ) ) 0 ) ( = ( + ( * 1 lam3n5 ) ( * UndefCntr1_undef53 lam3n6 ) ( - ( + 0 ( * Nl5arg11 1 ) ) ) ) 0 ) ( = ( + ( * ( - 1 ) lam3n1 ) ( * UndefCntr1_undef54 lam3n6 ) ( - ( + 0 ( * Nl5arg21 1 ) ) ) ) 0 ) ( = ( + ( * UndefCntr1_undef55 lam3n6 ) ( - ( + 0 ( * Nl5arg31 1 ) ) ) ) 0 ) ( = ( + ( * UndefCntr1_undef56 lam3n6 ) ( - ( + 0 ( * Nl5arg41 1 ) ) ) ) 0 ) ) ))
(assert ( and ( <= ( + Nl5CT1 ( * Nl5arg11 FV_arg1_2 ) ( * Nl5arg21 FV_arg2_2 ) ( * Nl5arg31 FV_arg3_2 ) ( * Nl5arg41 FV_arg4_2 ) ) 0 ) ( <= ( + FV_arg1_2 ( * ( - 1 ) FV_arg2_2 ) ) 0 ) ))
(assert ( or ( not ( = UndefCntr0_arg1 0 ) ) ( not ( = UndefCntr0_arg2 0 ) ) ( not ( = UndefCntr0_arg3 0 ) ) ( not ( = UndefCntr0_arg4 0 ) ) ( not ( = UndefCntr0_undef49 0 ) ) ( not ( = UndefCntr0_undef50 0 ) ) ( not ( = UndefCntr0_undef51 0 ) ) ( not ( = UndefCntr0_undef52 0 ) ) ( = UndefCntr0_CT 0 ) ))
(assert ( or ( and ( = UndefCntr0_arg1 0 ) ( = UndefCntr0_arg2 0 ) ( = UndefCntr0_arg3 0 ) ( = UndefCntr0_arg4 0 ) ) ( or ( not ( = UndefCntr0_undef49 0 ) ) ( not ( = UndefCntr0_undef50 0 ) ) ( not ( = UndefCntr0_undef51 0 ) ) ( not ( = UndefCntr0_undef52 0 ) ) ) ))
(assert ( or ( not ( = UndefCntr1_arg1 0 ) ) ( not ( = UndefCntr1_arg2 0 ) ) ( not ( = UndefCntr1_arg3 0 ) ) ( not ( = UndefCntr1_arg4 0 ) ) ( not ( = UndefCntr1_undef53 0 ) ) ( not ( = UndefCntr1_undef54 0 ) ) ( not ( = UndefCntr1_undef55 0 ) ) ( not ( = UndefCntr1_undef56 0 ) ) ( = UndefCntr1_CT 0 ) ))
(assert ( or ( and ( = UndefCntr1_arg1 0 ) ( = UndefCntr1_arg2 0 ) ( = UndefCntr1_arg3 0 ) ( = UndefCntr1_arg4 0 ) ) ( or ( not ( = UndefCntr1_undef53 0 ) ) ( not ( = UndefCntr1_undef54 0 ) ) ( not ( = UndefCntr1_undef55 0 ) ) ( not ( = UndefCntr1_undef56 0 ) ) ) ))
(assert ( or ( and ( >= lam6n0 0 ) ( >= lam6n1 0 ) ( >= lam6n2 0 ) ( >= lam6n3 0 ) ( >= lam6n4 0 ) ( > ( + ( * 2 lam6n1 ) ( * 3 lam6n2 ) ( * 3 lam6n3 ) ( * Nl5CT1 lam6n4 ) ( - 1 ) ) 0 ) ( = ( + ( * 1 lam6n0 ) ( * ( - 1 ) lam6n1 ) ( * ( - 1 ) lam6n2 ) ( * Nl5arg11 lam6n4 ) ) 0 ) ( = ( + ( * ( - 1 ) lam6n0 ) ( * ( - 1 ) lam6n1 ) ( * ( - 1 ) lam6n3 ) ( * Nl5arg21 lam6n4 ) ) 0 ) ( = ( * Nl5arg31 lam6n4 ) 0 ) ( = ( * Nl5arg41 lam6n4 ) 0 ) ) ( and ( and ( >= lam7n0 0 ) ( >= lam7n1 0 ) ( >= lam7n2 0 ) ( >= lam7n3 0 ) ( >= lam7n4 0 ) ( > ( + ( * 2 lam7n1 ) ( * 3 lam7n2 ) ( * 3 lam7n3 ) ( * Nl5CT1 lam7n4 ) ( - 1 ( + 0 ( * ( - 1 ) UndefDef0undef50_CT ) ) ) ) 0 ) ( = ( + ( * 1 lam7n0 ) ( * ( - 1 ) lam7n1 ) ( * ( - 1 ) lam7n2 ) ( * Nl5arg11 lam7n4 ) ( - ( * UndefDef0undef50_arg1 ( - 1 ) ) ) ) 0 ) ( = ( + ( * ( - 1 ) lam7n0 ) ( * ( - 1 ) lam7n1 ) ( * ( - 1 ) lam7n3 ) ( * Nl5arg21 lam7n4 ) ( - ( * UndefDef0undef50_arg2 ( - 1 ) ) ) ) 0 ) ( = ( + ( * Nl5arg31 lam7n4 ) ( - ( * UndefDef0undef50_arg3 ( - 1 ) ) ) ) 0 ) ( = ( + ( * Nl5arg41 lam7n4 ) ( - ( * UndefDef0undef50_arg4 ( - 1 ) ) ) ) 0 ) ) ( and ( >= lam8n0 0 ) ( >= lam8n1 0 ) ( >= lam8n2 0 ) ( >= lam8n3 0 ) ( >= lam8n4 0 ) ( > ( + ( * 2 lam8n1 ) ( * 3 lam8n2 ) ( * 3 lam8n3 ) ( * Nl5CT1 lam8n4 ) ( - 1 ( + ( + 2 0 ) ( * 1 UndefDef0undef49_CT ) ) ) ) 0 ) ( = ( + ( * 1 lam8n0 ) ( * ( - 1 ) lam8n1 ) ( * ( - 1 ) lam8n2 ) ( * Nl5arg11 lam8n4 ) ( - ( + ( - 1 ) ( * UndefDef0undef49_arg1 1 ) ) ) ) 0 ) ( = ( + ( * ( - 1 ) lam8n0 ) ( * ( - 1 ) lam8n1 ) ( * ( - 1 ) lam8n3 ) ( * Nl5arg21 lam8n4 ) ( - ( * UndefDef0undef49_arg2 1 ) ) ) 0 ) ( = ( + ( * Nl5arg31 lam8n4 ) ( - ( * UndefDef0undef49_arg3 1 ) ) ) 0 ) ( = ( + ( * Nl5arg41 lam8n4 ) ( - ( * UndefDef0undef49_arg4 1 ) ) ) 0 ) ) ( and ( >= lam9n0 0 ) ( >= lam9n1 0 ) ( >= lam9n2 0 ) ( >= lam9n3 0 ) ( >= lam9n4 0 ) ( > ( + ( * 2 lam9n1 ) ( * 3 lam9n2 ) ( * 3 lam9n3 ) ( * Nl5CT1 lam9n4 ) ( - 1 ( + ( + 2 0 ) ( * 1 UndefDef0undef50_CT ) ) ) ) 0 ) ( = ( + ( * 1 lam9n0 ) ( * ( - 1 ) lam9n1 ) ( * ( - 1 ) lam9n2 ) ( * Nl5arg11 lam9n4 ) ( - ( + ( - 1 ) ( * UndefDef0undef50_arg1 1 ) ) ) ) 0 ) ( = ( + ( * ( - 1 ) lam9n0 ) ( * ( - 1 ) lam9n1 ) ( * ( - 1 ) lam9n3 ) ( * Nl5arg21 lam9n4 ) ( - ( * UndefDef0undef50_arg2 1 ) ) ) 0 ) ( = ( + ( * Nl5arg31 lam9n4 ) ( - ( * UndefDef0undef50_arg3 1 ) ) ) 0 ) ( = ( + ( * Nl5arg41 lam9n4 ) ( - ( * UndefDef0undef50_arg4 1 ) ) ) 0 ) ) ( and ( >= lam10n0 0 ) ( >= lam10n1 0 ) ( >= lam10n2 0 ) ( >= lam10n3 0 ) ( >= lam10n4 0 ) ( > ( + ( * 2 lam10n1 ) ( * 3 lam10n2 ) ( * 3 lam10n3 ) ( * Nl5CT1 lam10n4 ) ( - 1 ( + ( + 2 0 ) ( * 1 UndefDef0undef49_CT ) ) ) ) 0 ) ( = ( + ( * 1 lam10n0 ) ( * ( - 1 ) lam10n1 ) ( * ( - 1 ) lam10n2 ) ( * Nl5arg11 lam10n4 ) ( - ( * UndefDef0undef49_arg1 1 ) ) ) 0 ) ( = ( + ( * ( - 1 ) lam10n0 ) ( * ( - 1 ) lam10n1 ) ( * ( - 1 ) lam10n3 ) ( * Nl5arg21 lam10n4 ) ( - ( + ( - 1 ) ( * UndefDef0undef49_arg2 1 ) ) ) ) 0 ) ( = ( + ( * Nl5arg31 lam10n4 ) ( - ( * UndefDef0undef49_arg3 1 ) ) ) 0 ) ( = ( + ( * Nl5arg41 lam10n4 ) ( - ( * UndefDef0undef49_arg4 1 ) ) ) 0 ) ) ( and ( >= lam11n0 0 ) ( >= lam11n1 0 ) ( >= lam11n2 0 ) ( >= lam11n3 0 ) ( >= lam11n4 0 ) ( > ( + ( * 2 lam11n1 ) ( * 3 lam11n2 ) ( * 3 lam11n3 ) ( * Nl5CT1 lam11n4 ) ( - 1 ( + ( + 2 0 ) ( * 1 UndefDef0undef50_CT ) ) ) ) 0 ) ( = ( + ( * 1 lam11n0 ) ( * ( - 1 ) lam11n1 ) ( * ( - 1 ) lam11n2 ) ( * Nl5arg11 lam11n4 ) ( - ( * UndefDef0undef50_arg1 1 ) ) ) 0 ) ( = ( + ( * ( - 1 ) lam11n0 ) ( * ( - 1 ) lam11n1 ) ( * ( - 1 ) lam11n3 ) ( * Nl5arg21 lam11n4 ) ( - ( + ( - 1 ) ( * UndefDef0undef50_arg2 1 ) ) ) ) 0 ) ( = ( + ( * Nl5arg31 lam11n4 ) ( - ( * UndefDef0undef50_arg3 1 ) ) ) 0 ) ( = ( + ( * Nl5arg41 lam11n4 ) ( - ( * UndefDef0undef50_arg4 1 ) ) ) 0 ) ) ( and ( >= lam12n0 0 ) ( >= lam12n1 0 ) ( >= lam12n2 0 ) ( >= lam12n3 0 ) ( >= lam12n4 0 ) ( > ( + ( * 2 lam12n1 ) ( * 3 lam12n2 ) ( * 3 lam12n3 ) ( * Nl5CT1 lam12n4 ) ( - 1 ( + 0 ( * 1 UndefDef0undef49_CT ) ) ) ) 0 ) ( = ( + ( * 1 lam12n0 ) ( * ( - 1 ) lam12n1 ) ( * ( - 1 ) lam12n2 ) ( * Nl5arg11 lam12n4 ) ( - ( * UndefDef0undef49_arg1 1 ) ) ) 0 ) ( = ( + ( * ( - 1 ) lam12n0 ) ( * ( - 1 ) lam12n1 ) ( * ( - 1 ) lam12n3 ) ( * Nl5arg21 lam12n4 ) ( - ( * UndefDef0undef49_arg2 1 ) ) ) 0 ) ( = ( + ( * Nl5arg31 lam12n4 ) ( - ( * UndefDef0undef49_arg3 1 ) ) ) 0 ) ( = ( + ( * Nl5arg41 lam12n4 ) ( - ( * UndefDef0undef49_arg4 1 ) ) ) 0 ) ) ( and ( >= lam13n0 0 ) ( >= lam13n1 0 ) ( >= lam13n2 0 ) ( >= lam13n3 0 ) ( >= lam13n4 0 ) ( > ( + ( * 2 lam13n1 ) ( * 3 lam13n2 ) ( * 3 lam13n3 ) ( * Nl5CT1 lam13n4 ) ( - 1 ( - ( + 0 ( * 1 UndefDef0undef49_CT ) ) ) ) ) 0 ) ( = ( + ( * 1 lam13n0 ) ( * ( - 1 ) lam13n1 ) ( * ( - 1 ) lam13n2 ) ( * Nl5arg11 lam13n4 ) ( - ( - ( * UndefDef0undef49_arg1 1 ) ) ) ) 0 ) ( = ( + ( * ( - 1 ) lam13n0 ) ( * ( - 1 ) lam13n1 ) ( * ( - 1 ) lam13n3 ) ( * Nl5arg21 lam13n4 ) ( - ( - ( * UndefDef0undef49_arg2 1 ) ) ) ) 0 ) ( = ( + ( * Nl5arg31 lam13n4 ) ( - ( - ( * UndefDef0undef49_arg3 1 ) ) ) ) 0 ) ( = ( + ( * Nl5arg41 lam13n4 ) ( - ( - ( * UndefDef0undef49_arg4 1 ) ) ) ) 0 ) ) ( or ( and ( = UndefCntr0_undef49 0 ) ( = UndefCntr0_undef50 0 ) ) ( and ( >= lam14n0 0 ) ( >= lam14n1 0 ) ( >= lam14n2 0 ) ( >= lam14n3 0 ) ( >= lam14n4 0 ) ( > ( + ( * 2 lam14n1 ) ( * 3 lam14n2 ) ( * 3 lam14n3 ) ( * Nl5CT1 lam14n4 ) ( - 1 ( + ( + ( + ( + ( + ( + ( + ( + UndefCntr0_CT 0 ) 0 ) 0 ) 0 ) ( * UndefCntr0_undef49 UndefDef0undef49_CT ) ) ( * UndefCntr0_undef50 UndefDef0undef50_CT ) ) 0 ) 0 ) ) ) 0 ) ( = ( + ( * 1 lam14n0 ) ( * ( - 1 ) lam14n1 ) ( * ( - 1 ) lam14n2 ) ( * Nl5arg11 lam14n4 ) ( - ( + ( + UndefCntr0_arg1 ( * UndefDef0undef49_arg1 UndefCntr0_undef49 ) ) ( * UndefDef0undef50_arg1 UndefCntr0_undef50 ) ) ) ) 0 ) ( = ( + ( * ( - 1 ) lam14n0 ) ( * ( - 1 ) lam14n1 ) ( * ( - 1 ) lam14n3 ) ( * Nl5arg21 lam14n4 ) ( - ( + ( + UndefCntr0_arg2 ( * UndefDef0undef49_arg2 UndefCntr0_undef49 ) ) ( * UndefDef0undef50_arg2 UndefCntr0_undef50 ) ) ) ) 0 ) ( = ( + ( * Nl5arg31 lam14n4 ) ( - ( + ( + UndefCntr0_arg3 ( * UndefDef0undef49_arg3 UndefCntr0_undef49 ) ) ( * UndefDef0undef50_arg3 UndefCntr0_undef50 ) ) ) ) 0 ) ( = ( + ( * Nl5arg41 lam14n4 ) ( - ( + ( + UndefCntr0_arg4 ( * UndefDef0undef49_arg4 UndefCntr0_undef49 ) ) ( * UndefDef0undef50_arg4 UndefCntr0_undef50 ) ) ) ) 0 ) ( = ( - UndefCntr0_undef51 ) 0 ) ( = ( - UndefCntr0_undef52 ) 0 ) ) ) ) ))
(assert ( or ( = UndefCntr1_undef53 0 ) ( and ( and ( = UndefCntr1_arg1 0 ) ( = UndefCntr1_arg2 0 ) ( = UndefCntr1_arg3 0 ) ( = UndefCntr1_arg4 0 ) ( = UndefCntr1_undef55 0 ) ( = UndefCntr1_undef56 0 ) ( = UndefCntr1_undef54 0 ) ) ( or ( and ( = FV_undef53_1 0 ) ( <= ( + UndefCntr1_CT ( * UndefCntr1_undef53 FV_undef53_1 ) ( * UndefCntr1_undef54 FV_undef54_1 ) ( * UndefCntr1_arg1 FV_arg1_1 ) ( * UndefCntr1_arg2 FV_arg2_1 ) ( * UndefCntr1_arg3 FV_arg3_1 ) ( * UndefCntr1_arg4 FV_arg4_1 ) ( * UndefCntr1_undef55 FV_undef55_1 ) ( * UndefCntr1_undef56 FV_undef56_1 ) ) 0 ) ) ( and ( = FV_undef53_1 0 ) ( <= ( + UndefCntr1_CT ( * UndefCntr1_undef53 FV_undef53_1 ) ( * UndefCntr1_undef54 FV_undef54_1 ) ( * UndefCntr1_arg1 FV_arg1_1 ) ( * UndefCntr1_arg2 FV_arg2_1 ) ( * UndefCntr1_arg3 FV_arg3_1 ) ( * UndefCntr1_arg4 FV_arg4_1 ) ( * UndefCntr1_undef55 FV_undef55_1 ) ( * UndefCntr1_undef56 FV_undef56_1 ) ) 0 ) ) ) ) ))
(assert ( or ( = UndefCntr1_undef54 0 ) ( and ( and ( = UndefCntr1_arg1 0 ) ( = UndefCntr1_arg2 0 ) ( = UndefCntr1_arg3 0 ) ( = UndefCntr1_arg4 0 ) ( = UndefCntr1_undef55 0 ) ( = UndefCntr1_undef56 0 ) ( = UndefCntr1_undef53 0 ) ) ( or ( and ( <= ( * ( - 1 ) FV_undef54_1 ) 0 ) ( <= ( + UndefCntr1_CT ( * UndefCntr1_undef53 FV_undef53_1 ) ( * UndefCntr1_undef54 FV_undef54_1 ) ( * UndefCntr1_arg1 FV_arg1_1 ) ( * UndefCntr1_arg2 FV_arg2_1 ) ( * UndefCntr1_arg3 FV_arg3_1 ) ( * UndefCntr1_arg4 FV_arg4_1 ) ( * UndefCntr1_undef55 FV_undef55_1 ) ( * UndefCntr1_undef56 FV_undef56_1 ) ) 0 ) ) ( and ( <= ( * ( - 1 ) FV_undef54_1 ) 0 ) ( <= ( + UndefCntr1_CT ( * UndefCntr1_undef53 FV_undef53_1 ) ( * UndefCntr1_undef54 FV_undef54_1 ) ( * UndefCntr1_arg1 FV_arg1_1 ) ( * UndefCntr1_arg2 FV_arg2_1 ) ( * UndefCntr1_arg3 FV_arg3_1 ) ( * UndefCntr1_arg4 FV_arg4_1 ) ( * UndefCntr1_undef55 FV_undef55_1 ) ( * UndefCntr1_undef56 FV_undef56_1 ) ) 0 ) ) ) ) ))
(assert ( and ( >= lam15n0 0 ) ( >= lam15n1 0 ) ( >= lam15n2 0 ) ( > ( + ( * ( - 2 ) lam15n1 ) ( * Nl5CT1 lam15n2 ) ( - 1 ) ) 0 ) ( = ( + ( * 1 lam15n0 ) ( * 1 lam15n1 ) ( * Nl5arg11 lam15n2 ) ) 0 ) ( = ( + ( * ( - 1 ) lam15n0 ) ( * Nl5arg21 lam15n2 ) ) 0 ) ( = ( * Nl5arg31 lam15n2 ) 0 ) ( = ( * Nl5arg41 lam15n2 ) 0 ) ))
(assert ( and ( <= ( + Nl5CT1 ( * Nl5arg11 FV_arg1_3 ) ( * Nl5arg21 FV_arg2_3 ) ( * Nl5arg31 FV_arg3_3 ) ( * Nl5arg41 FV_arg4_3 ) ) 0 ) ( or ( and ( <= ( + FV_arg1_3 ( * ( - 1 ) FV_arg2_3 ) ) 0 ) ( <= ( * ( - 1 ) FV_undef50_3 ) 0 ) ( <= ( + 2 ( * ( - 1 ) FV_arg1_3 ) ( * ( - 1 ) FV_arg2_3 ) ) 0 ) ( <= ( + 2 ( * ( - 1 ) FV_arg1_3 ) FV_undef49_3 ) 0 ) ( <= ( + 2 ( * ( - 1 ) FV_arg1_3 ) FV_undef50_3 ) 0 ) ( <= ( + 2 ( * ( - 1 ) FV_arg2_3 ) FV_undef49_3 ) 0 ) ( <= ( + 2 ( * ( - 1 ) FV_arg2_3 ) FV_undef50_3 ) 0 ) ( <= ( + 3 ( * ( - 1 ) FV_arg1_3 ) ) 0 ) ( <= ( + 3 ( * ( - 1 ) FV_arg2_3 ) ) 0 ) ( = FV_undef49_3 0 ) ) ( and ( <= ( + FV_arg1_3 ( * ( - 1 ) FV_arg2_3 ) ) 0 ) ( <= ( * ( - 1 ) FV_undef54_3 ) 0 ) ( <= ( + 2 ( * ( - 1 ) FV_arg1_3 ) ( * ( - 1 ) FV_arg2_3 ) ) 0 ) ( <= ( + 3 ( * ( - 1 ) FV_arg1_3 ) ) 0 ) ( <= ( + 3 ( * ( - 1 ) FV_arg2_3 ) ) 0 ) ( = FV_undef53_3 0 ) ) ) ))
(check-sat)
(exit)
